NAME : X-n536-k96
COMMENT : "Generated by Uchoa, Pecin, Pessoa, Poggi, Subramanian, and Vidal (2013)"
TYPE : CVRP
DIMENSION : 536
EDGE_WEIGHT_TYPE : EUC_2D
CAPACITY : 371
NODE_COORD_SECTION
1 500 500
2 957 135
3 149 141
4 1 96
5 228 268
6 781 529
7 867 797
8 109 53
9 9 127
10 258 317
11 89 54
12 167 155
13 739 534
14 962 896
15 975 122
16 960 68
17 205 52
18 841 806
19 739 677
20 90 192
21 842 772
22 972 143
23 27 85
24 953 240
25 185 211
26 652 428
27 764 523
28 159 142
29 101 113
30 879 837
31 885 326
32 953 118
33 777 491
34 65 66
35 976 171
36 961 748
37 710 493
38 778 708
39 277 223
40 88 112
41 172 57
42 2 209
43 121 64
44 938 29
45 166 160
46 142 97
47 84 284
48 269 224
49 940 727
50 876 822
51 131 169
52 951 768
53 278 21
54 292 280
55 672 616
56 94 96
57 212 89
58 270 368
59 852 777
60 170 200
61 848 123
62 951 777
63 756 532
64 101 29
65 136 52
66 831 553
67 953 784
68 170 135
69 861 728
70 172 133
71 826 899
72 832 615
73 142 249
74 900 565
75 735 672
76 837 833
77 723 538
78 931 862
79 214 45
80 938 2
81 918 296
82 931 760
83 994 40
84 302 389
85 115 120
86 138 134
87 764 502
88 962 408
89 888 216
90 209 168
91 100 131
92 900 163
93 15 209
94 219 170
95 782 310
96 922 706
97 279 265
98 750 566
99 276 393
100 133 16
101 372 183
102 761 503
103 116 205
104 33 8
105 203 336
106 240 222
107 95 100
108 261 357
109 633 551
110 904 796
111 12 26
112 288 231
113 861 613
114 245 331
115 815 790
116 257 215
117 949 42
118 83 118
119 529 414
120 462 64
121 146 141
122 799 566
123 618 497
124 742 619
125 954 95
126 57 141
127 133 147
128 179 120
129 938 798
130 92 54
131 188 352
132 211 240
133 866 805
134 660 583
135 74 30
136 119 236
137 120 81
138 69 324
139 719 569
140 788 550
141 120 172
142 14 196
143 179 85
144 171 66
145 107 83
146 861 867
147 108 141
148 272 82
149 838 505
150 43 122
151 617 454
152 28 140
153 91 118
154 880 814
155 833 431
156 130 386
157 670 343
158 940 211
159 708 548
160 695 683
161 71 239
162 804 481
163 181 205
164 237 246
165 783 600
166 987 269
167 851 904
168 193 200
169 156 48
170 169 133
171 824 526
172 52 78
173 636 413
174 158 202
175 661 518
176 503 293
177 575 564
178 227 248
179 90 2
180 122 18
181 786 523
182 960 117
183 958 161
184 752 556
185 24 141
186 116 95
187 371 175
188 184 142
189 937 88
190 875 736
191 22 198
192 882 774
193 639 445
194 810 457
195 127 62
196 5 118
197 95 143
198 876 63
199 285 103
200 773 583
201 81 381
202 238 111
203 192 112
204 174 145
205 778 665
206 511 970
207 22 131
208 196 67
209 261 221
210 782 505
211 220 252
212 173 150
213 816 601
214 806 559
215 14 85
216 256 96
217 278 754
218 110 144
219 779 840
220 726 649
221 24 33
222 789 502
223 891 441
224 139 183
225 866 897
226 689 824
227 853 747
228 863 901
229 155 178
230 969 132
231 299 256
232 158 110
233 159 108
234 909 804
235 125 34
236 22 156
237 573 369
238 815 507
239 6 58
240 917 123
241 240 291
242 986 55
243 818 595
244 253 263
245 943 195
246 131 242
247 30 327
248 778 781
249 981 137
250 121 775
251 954 848
252 797 822
253 954 250
254 225 255
255 174 53
256 956 816
257 214 280
258 805 500
259 873 491
260 256 117
261 50 35
262 185 185
263 65 68
264 207 260
265 156 61
266 49 5
267 71 6
268 927 138
269 140 191
270 814 161
271 850 719
272 176 26
273 991 261
274 848 439
275 929 775
276 153 149
277 185 155
278 230 56
279 170 174
280 239 290
281 63 148
282 781 515
283 99 71
284 148 140
285 791 748
286 924 218
287 803 391
288 82 136
289 876 669
290 310 69
291 66 21
292 736 530
293 701 510
294 875 534
295 687 967
296 63 50
297 759 255
298 230 7
299 874 209
300 695 484
301 849 700
302 251 194
303 739 85
304 851 157
305 794 978
306 242 319
307 821 949
308 244 217
309 961 173
310 110 95
311 50 170
312 919 814
313 189 198
314 978 223
315 47 97
316 959 147
317 156 229
318 53 374
319 169 153
320 936 80
321 772 613
322 205 289
323 226 227
324 951 155
325 881 702
326 191 58
327 126 58
328 722 532
329 921 656
330 168 349
331 85 69
332 810 844
333 113 73
334 863 716
335 862 810
336 250 187
337 25 56
338 203 221
339 969 661
340 719 562
341 884 752
342 241 314
343 764 525
344 132 265
345 144 344
346 573 430
347 276 185
348 247 342
349 837 453
350 888 516
351 219 242
352 295 317
353 228 115
354 815 268
355 351 420
356 67 154
357 893 135
358 863 815
359 159 324
360 28 41
361 711 120
362 94 122
363 873 783
364 964 182
365 303 71
366 801 527
367 743 469
368 263 62
369 691 763
370 981 160
371 226 261
372 231 277
373 0 66
374 48 108
375 162 295
376 680 554
377 199 93
378 848 757
379 92 81
380 203 265
381 98 266
382 67 156
383 148 150
384 988 69
385 741 524
386 961 140
387 132 74
388 828 773
389 785 734
390 69 154
391 48 26
392 700 593
393 142 62
394 198 427
395 781 499
396 980 94
397 828 87
398 26 148
399 194 252
400 981 717
401 884 608
402 797 521
403 875 253
404 502 408
405 295 92
406 5 77
407 164 234
408 63 110
409 117 104
410 46 147
411 900 127
412 219 151
413 319 211
414 837 700
415 109 209
416 696 686
417 868 544
418 293 351
419 167 171
420 357 171
421 183 209
422 99 228
423 897 821
424 209 175
425 219 49
426 188 30
427 261 197
428 242 211
429 958 11
430 824 818
431 156 230
432 109 154
433 194 32
434 920 831
435 995 157
436 760 310
437 180 73
438 98 90
439 946 255
440 953 881
441 162 8
442 883 804
443 232 412
444 109 131
445 883 880
446 813 219
447 242 262
448 232 252
449 352 260
450 813 936
451 362 335
452 64 199
453 890 788
454 901 823
455 942 120
456 688 799
457 662 470
458 300 261
459 967 790
460 965 126
461 102 58
462 794 886
463 788 252
464 116 327
465 763 349
466 1000 129
467 814 388
468 198 136
469 425 178
470 227 226
471 311 229
472 161 159
473 106 161
474 287 271
475 695 660
476 207 138
477 112 6
478 915 537
479 169 94
480 769 555
481 158 72
482 35 268
483 790 842
484 80 321
485 150 503
486 89 287
487 645 573
488 190 296
489 165 193
490 135 337
491 978 234
492 138 28
493 223 78
494 865 815
495 883 795
496 113 268
497 143 232
498 235 221
499 840 666
500 197 130
501 101 121
502 786 589
503 153 12
504 152 191
505 209 267
506 232 124
507 89 490
508 759 490
509 674 703
510 109 317
511 46 93
512 250 203
513 741 662
514 924 148
515 622 606
516 147 316
517 730 561
518 910 118
519 21 113
520 879 493
521 72 281
522 961 782
523 158 80
524 926 766
525 800 624
526 989 133
527 21 106
528 175 289
529 802 534
530 601 532
531 928 976
532 162 281
533 134 76
534 901 235
535 348 278
536 31 94
PICKUP_AND_DELIVERY_SECTION
1 0 0 1000000000 0 0 0
2 0 0 1000000000 0 0 22
3 0 0 1000000000 0 0 94
4 0 0 1000000000 0 0 52
5 0 0 1000000000 0 51 0
6 0 0 1000000000 0 0 54
7 0 0 1000000000 0 0 96
8 0 0 1000000000 0 0 96
9 0 0 1000000000 0 82 0
10 0 0 1000000000 0 0 77
11 0 0 1000000000 0 0 82
12 0 0 1000000000 0 0 55
13 0 0 1000000000 0 78 0
14 0 0 1000000000 0 0 77
15 0 0 1000000000 0 0 40
16 0 0 1000000000 0 0 47
17 0 0 1000000000 0 89 0
18 0 0 1000000000 0 0 77
19 0 0 1000000000 0 0 94
20 0 0 1000000000 0 0 78
21 0 0 1000000000 0 81 0
22 0 0 1000000000 0 0 37
23 0 0 1000000000 0 0 66
24 0 0 1000000000 0 0 8
25 0 0 1000000000 0 79 0
26 0 0 1000000000 0 0 24
27 0 0 1000000000 0 0 70
28 0 0 1000000000 0 0 80
29 0 0 1000000000 0 100 0
30 0 0 1000000000 0 0 53
31 0 0 1000000000 0 0 30
32 0 0 1000000000 0 0 10
33 0 0 1000000000 0 34 0
34 0 0 1000000000 0 0 63
35 0 0 1000000000 0 0 29
36 0 0 1000000000 0 0 80
37 0 0 1000000000 0 41 0
38 0 0 1000000000 0 0 80
39 0 0 1000000000 0 0 62
40 0 0 1000000000 0 0 100
41 0 0 1000000000 0 66 0
42 0 0 1000000000 0 0 79
43 0 0 1000000000 0 0 71
44 0 0 1000000000 0 0 29
45 0 0 1000000000 0 94 0
46 0 0 1000000000 0 0 99
47 0 0 1000000000 0 0 59
48 0 0 1000000000 0 0 57
49 0 0 1000000000 0 93 0
50 0 0 1000000000 0 0 52
51 0 0 1000000000 0 0 54
52 0 0 1000000000 0 0 65
53 0 0 1000000000 0 64 0
54 0 0 1000000000 0 0 52
55 0 0 1000000000 0 0 88
56 0 0 1000000000 0 0 56
57 0 0 1000000000 0 76 0
58 0 0 1000000000 0 0 82
59 0 0 1000000000 0 0 65
60 0 0 1000000000 0 0 77
61 0 0 1000000000 0 41 0
62 0 0 1000000000 0 0 94
63 0 0 1000000000 0 0 100
64 0 0 1000000000 0 0 94
65 0 0 1000000000 0 97 0
66 0 0 1000000000 0 0 56
67 0 0 1000000000 0 0 92
68 0 0 1000000000 0 0 79
69 0 0 1000000000 0 59 0
70 0 0 1000000000 0 0 78
71 0 0 1000000000 0 0 99
72 0 0 1000000000 0 0 91
73 0 0 1000000000 0 59 0
74 0 0 1000000000 0 0 64
75 0 0 1000000000 0 0 61
76 0 0 1000000000 0 0 80
77 0 0 1000000000 0 99 0
78 0 0 1000000000 0 0 66
79 0 0 1000000000 0 0 95
80 0 0 1000000000 0 0 28
81 0 0 1000000000 0 5 0
82 0 0 1000000000 0 0 69
83 0 0 1000000000 0 0 9
84 0 0 1000000000 0 0 86
85 0 0 1000000000 0 73 0
86 0 0 1000000000 0 0 58
87 0 0 1000000000 0 0 98
88 0 0 1000000000 0 0 15
89 0 0 1000000000 0 19 0
90 0 0 1000000000 0 0 71
91 0 0 1000000000 0 0 88
92 0 0 1000000000 0 0 26
93 0 0 1000000000 0 79 0
94 0 0 1000000000 0 0 64
95 0 0 1000000000 0 0 32
96 0 0 1000000000 0 0 75
97 0 0 1000000000 0 54 0
98 0 0 1000000000 0 0 97
99 0 0 1000000000 0 0 82
100 0 0 1000000000 0 0 92
101 0 0 1000000000 0 51 0
102 0 0 1000000000 0 0 68
103 0 0 1000000000 0 0 84
104 0 0 1000000000 0 0 56
105 0 0 1000000000 0 65 0
106 0 0 1000000000 0 0 56
107 0 0 1000000000 0 0 63
108 0 0 1000000000 0 0 53
109 0 0 1000000000 0 77 0
110 0 0 1000000000 0 0 81
111 0 0 1000000000 0 0 85
112 0 0 1000000000 0 0 65
113 0 0 1000000000 0 67 0
114 0 0 1000000000 0 0 67
115 0 0 1000000000 0 0 78
116 0 0 1000000000 0 0 93
117 0 0 1000000000 0 48 0
118 0 0 1000000000 0 0 54
119 0 0 1000000000 0 0 21
120 0 0 1000000000 0 0 56
121 0 0 1000000000 0 81 0
122 0 0 1000000000 0 0 58
123 0 0 1000000000 0 0 36
124 0 0 1000000000 0 0 72
125 0 0 1000000000 0 1 0
126 0 0 1000000000 0 0 95
127 0 0 1000000000 0 0 99
128 0 0 1000000000 0 0 74
129 0 0 1000000000 0 79 0
130 0 0 1000000000 0 0 94
131 0 0 1000000000 0 0 98
132 0 0 1000000000 0 0 72
133 0 0 1000000000 0 72 0
134 0 0 1000000000 0 0 56
135 0 0 1000000000 0 0 65
136 0 0 1000000000 0 0 89
137 0 0 1000000000 0 98 0
138 0 0 1000000000 0 0 55
139 0 0 1000000000 0 0 60
140 0 0 1000000000 0 0 67
141 0 0 1000000000 0 91 0
142 0 0 1000000000 0 0 84
143 0 0 1000000000 0 0 69
144 0 0 1000000000 0 0 80
145 0 0 1000000000 0 71 0
146 0 0 1000000000 0 0 80
147 0 0 1000000000 0 0 80
148 0 0 1000000000 0 0 60
149 0 0 1000000000 0 72 0
150 0 0 1000000000 0 0 51
151 0 0 1000000000 0 0 34
152 0 0 1000000000 0 0 61
153 0 0 1000000000 0 97 0
154 0 0 1000000000 0 0 73
155 0 0 1000000000 0 0 47
156 0 0 1000000000 0 0 55
157 0 0 1000000000 0 46 0
158 0 0 1000000000 0 0 31
159 0 0 1000000000 0 0 91
160 0 0 1000000000 0 0 90
161 0 0 1000000000 0 72 0
162 0 0 1000000000 0 0 38
163 0 0 1000000000 0 0 100
164 0 0 1000000000 0 0 87
165 0 0 1000000000 0 72 0
166 0 0 1000000000 0 0 45
167 0 0 1000000000 0 0 73
168 0 0 1000000000 0 0 86
169 0 0 1000000000 0 99 0
170 0 0 1000000000 0 0 90
171 0 0 1000000000 0 0 56
172 0 0 1000000000 0 0 70
173 0 0 1000000000 0 29 0
174 0 0 1000000000 0 0 51
175 0 0 1000000000 0 0 56
176 0 0 1000000000 0 0 43
177 0 0 1000000000 0 59 0
178 0 0 1000000000 0 0 85
179 0 0 1000000000 0 0 88
180 0 0 1000000000 0 0 65
181 0 0 1000000000 0 80 0
182 0 0 1000000000 0 0 26
183 0 0 1000000000 0 0 11
184 0 0 1000000000 0 0 76
185 0 0 1000000000 0 59 0
186 0 0 1000000000 0 0 73
187 0 0 1000000000 0 0 69
188 0 0 1000000000 0 0 57
189 0 0 1000000000 0 43 0
190 0 0 1000000000 0 0 59
191 0 0 1000000000 0 0 69
192 0 0 1000000000 0 0 94
193 0 0 1000000000 0 1 0
194 0 0 1000000000 0 0 6
195 0 0 1000000000 0 0 82
196 0 0 1000000000 0 0 65
197 0 0 1000000000 0 97 0
198 0 0 1000000000 0 0 2
199 0 0 1000000000 0 0 84
200 0 0 1000000000 0 0 63
201 0 0 1000000000 0 94 0
202 0 0 1000000000 0 0 57
203 0 0 1000000000 0 0 62
204 0 0 1000000000 0 0 89
205 0 0 1000000000 0 83 0
206 0 0 1000000000 0 0 88
207 0 0 1000000000 0 0 81
208 0 0 1000000000 0 0 63
209 0 0 1000000000 0 89 0
210 0 0 1000000000 0 0 68
211 0 0 1000000000 0 0 98
212 0 0 1000000000 0 0 81
213 0 0 1000000000 0 67 0
214 0 0 1000000000 0 0 96
215 0 0 1000000000 0 0 98
216 0 0 1000000000 0 0 75
217 0 0 1000000000 0 23 0
218 0 0 1000000000 0 0 68
219 0 0 1000000000 0 0 82
220 0 0 1000000000 0 0 94
221 0 0 1000000000 0 68 0
222 0 0 1000000000 0 0 76
223 0 0 1000000000 0 0 16
224 0 0 1000000000 0 0 60
225 0 0 1000000000 0 69 0
226 0 0 1000000000 0 0 59
227 0 0 1000000000 0 0 59
228 0 0 1000000000 0 0 80
229 0 0 1000000000 0 51 0
230 0 0 1000000000 0 0 26
231 0 0 1000000000 0 0 91
232 0 0 1000000000 0 0 58
233 0 0 1000000000 0 79 0
234 0 0 1000000000 0 0 84
235 0 0 1000000000 0 0 63
236 0 0 1000000000 0 0 62
237 0 0 1000000000 0 50 0
238 0 0 1000000000 0 0 92
239 0 0 1000000000 0 0 72
240 0 0 1000000000 0 0 41
241 0 0 1000000000 0 82 0
242 0 0 1000000000 0 0 27
243 0 0 1000000000 0 0 90
244 0 0 1000000000 0 0 99
245 0 0 1000000000 0 24 0
246 0 0 1000000000 0 0 58
247 0 0 1000000000 0 0 66
248 0 0 1000000000 0 0 65
249 0 0 1000000000 0 45 0
250 0 0 1000000000 0 0 1
251 0 0 1000000000 0 0 98
252 0 0 1000000000 0 0 78
253 0 0 1000000000 0 20 0
254 0 0 1000000000 0 0 65
255 0 0 1000000000 0 0 72
256 0 0 1000000000 0 0 77
257 0 0 1000000000 0 95 0
258 0 0 1000000000 0 0 87
259 0 0 1000000000 0 0 7
260 0 0 1000000000 0 0 80
261 0 0 1000000000 0 92 0
262 0 0 1000000000 0 0 56
263 0 0 1000000000 0 0 97
264 0 0 1000000000 0 0 80
265 0 0 1000000000 0 79 0
266 0 0 1000000000 0 0 95
267 0 0 1000000000 0 0 57
268 0 0 1000000000 0 0 35
269 0 0 1000000000 0 64 0
270 0 0 1000000000 0 0 48
271 0 0 1000000000 0 0 66
272 0 0 1000000000 0 0 57
273 0 0 1000000000 0 27 0
274 0 0 1000000000 0 0 33
275 0 0 1000000000 0 0 89
276 0 0 1000000000 0 0 76
277 0 0 1000000000 0 62 0
278 0 0 1000000000 0 0 55
279 0 0 1000000000 0 0 95
280 0 0 1000000000 0 0 67
281 0 0 1000000000 0 51 0
282 0 0 1000000000 0 0 100
283 0 0 1000000000 0 0 91
284 0 0 1000000000 0 0 93
285 0 0 1000000000 0 96 0
286 0 0 1000000000 0 0 27
287 0 0 1000000000 0 0 11
288 0 0 1000000000 0 0 51
289 0 0 1000000000 0 89 0
290 0 0 1000000000 0 0 84
291 0 0 1000000000 0 0 77
292 0 0 1000000000 0 0 80
293 0 0 1000000000 0 55 0
294 0 0 1000000000 0 0 95
295 0 0 1000000000 0 0 60
296 0 0 1000000000 0 0 89
297 0 0 1000000000 0 29 0
298 0 0 1000000000 0 0 93
299 0 0 1000000000 0 0 24
300 0 0 1000000000 0 0 13
301 0 0 1000000000 0 67 0
302 0 0 1000000000 0 0 99
303 0 0 1000000000 0 0 35
304 0 0 1000000000 0 0 6
305 0 0 1000000000 0 63 0
306 0 0 1000000000 0 0 79
307 0 0 1000000000 0 0 52
308 0 0 1000000000 0 0 92
309 0 0 1000000000 0 50 0
310 0 0 1000000000 0 0 96
311 0 0 1000000000 0 0 68
312 0 0 1000000000 0 0 66
313 0 0 1000000000 0 96 0
314 0 0 1000000000 0 0 47
315 0 0 1000000000 0 0 78
316 0 0 1000000000 0 0 39
317 0 0 1000000000 0 98 0
318 0 0 1000000000 0 0 55
319 0 0 1000000000 0 0 88
320 0 0 1000000000 0 0 5
321 0 0 1000000000 0 94 0
322 0 0 1000000000 0 0 83
323 0 0 1000000000 0 0 76
324 0 0 1000000000 0 0 46
325 0 0 1000000000 0 65 0
326 0 0 1000000000 0 0 84
327 0 0 1000000000 0 0 94
328 0 0 1000000000 0 0 90
329 0 0 1000000000 0 64 0
330 0 0 1000000000 0 0 87
331 0 0 1000000000 0 0 53
332 0 0 1000000000 0 0 64
333 0 0 1000000000 0 57 0
334 0 0 1000000000 0 0 70
335 0 0 1000000000 0 0 84
336 0 0 1000000000 0 0 59
337 0 0 1000000000 0 62 0
338 0 0 1000000000 0 0 57
339 0 0 1000000000 0 0 57
340 0 0 1000000000 0 0 88
341 0 0 1000000000 0 54 0
342 0 0 1000000000 0 0 58
343 0 0 1000000000 0 0 55
344 0 0 1000000000 0 0 62
345 0 0 1000000000 0 84 0
346 0 0 1000000000 0 0 29
347 0 0 1000000000 0 0 86
348 0 0 1000000000 0 0 62
349 0 0 1000000000 0 17 0
350 0 0 1000000000 0 0 58
351 0 0 1000000000 0 0 65
352 0 0 1000000000 0 0 99
353 0 0 1000000000 0 83 0
354 0 0 1000000000 0 0 48
355 0 0 1000000000 0 0 55
356 0 0 1000000000 0 0 69
357 0 0 1000000000 0 22 0
358 0 0 1000000000 0 0 65
359 0 0 1000000000 0 0 83
360 0 0 1000000000 0 0 69
361 0 0 1000000000 0 22 0
362 0 0 1000000000 0 0 58
363 0 0 1000000000 0 0 88
364 0 0 1000000000 0 0 41
365 0 0 1000000000 0 61 0
366 0 0 1000000000 0 0 92
367 0 0 1000000000 0 0 42
368 0 0 1000000000 0 0 60
369 0 0 1000000000 0 96 0
370 0 0 1000000000 0 0 11
371 0 0 1000000000 0 0 90
372 0 0 1000000000 0 0 62
373 0 0 1000000000 0 80 0
374 0 0 1000000000 0 0 75
375 0 0 1000000000 0 0 65
376 0 0 1000000000 0 0 78
377 0 0 1000000000 0 67 0
378 0 0 1000000000 0 0 94
379 0 0 1000000000 0 0 84
380 0 0 1000000000 0 0 96
381 0 0 1000000000 0 100 0
382 0 0 1000000000 0 0 68
383 0 0 1000000000 0 0 53
384 0 0 1000000000 0 0 13
385 0 0 1000000000 0 61 0
386 0 0 1000000000 0 0 16
387 0 0 1000000000 0 0 84
388 0 0 1000000000 0 0 96
389 0 0 1000000000 0 98 0
390 0 0 1000000000 0 0 83
391 0 0 1000000000 0 0 87
392 0 0 1000000000 0 0 78
393 0 0 1000000000 0 79 0
394 0 0 1000000000 0 0 69
395 0 0 1000000000 0 0 37
396 0 0 1000000000 0 0 8
397 0 0 1000000000 0 4 0
398 0 0 1000000000 0 0 72
399 0 0 1000000000 0 0 87
400 0 0 1000000000 0 0 69
401 0 0 1000000000 0 94 0
402 0 0 1000000000 0 0 59
403 0 0 1000000000 0 0 46
404 0 0 1000000000 0 0 8
405 0 0 1000000000 0 96 0
406 0 0 1000000000 0 0 66
407 0 0 1000000000 0 0 71
408 0 0 1000000000 0 0 57
409 0 0 1000000000 0 96 0
410 0 0 1000000000 0 0 83
411 0 0 1000000000 0 0 47
412 0 0 1000000000 0 0 71
413 0 0 1000000000 0 53 0
414 0 0 1000000000 0 0 89
415 0 0 1000000000 0 0 99
416 0 0 1000000000 0 0 59
417 0 0 1000000000 0 78 0
418 0 0 1000000000 0 0 54
419 0 0 1000000000 0 0 51
420 0 0 1000000000 0 0 52
421 0 0 1000000000 0 76 0
422 0 0 1000000000 0 0 64
423 0 0 1000000000 0 0 56
424 0 0 1000000000 0 0 94
425 0 0 1000000000 0 94 0
426 0 0 1000000000 0 0 96
427 0 0 1000000000 0 0 62
428 0 0 1000000000 0 0 53
429 0 0 1000000000 0 18 0
430 0 0 1000000000 0 0 63
431 0 0 1000000000 0 0 89
432 0 0 1000000000 0 0 57
433 0 0 1000000000 0 81 0
434 0 0 1000000000 0 0 67
435 0 0 1000000000 0 0 37
436 0 0 1000000000 0 0 34
437 0 0 1000000000 0 56 0
438 0 0 1000000000 0 0 70
439 0 0 1000000000 0 0 4
440 0 0 1000000000 0 0 76
441 0 0 1000000000 0 90 0
442 0 0 1000000000 0 0 59
443 0 0 1000000000 0 0 82
444 0 0 1000000000 0 0 98
445 0 0 1000000000 0 63 0
446 0 0 1000000000 0 0 23
447 0 0 1000000000 0 0 89
448 0 0 1000000000 0 0 69
449 0 0 1000000000 0 76 0
450 0 0 1000000000 0 0 71
451 0 0 1000000000 0 0 82
452 0 0 1000000000 0 0 71
453 0 0 1000000000 0 85 0
454 0 0 1000000000 0 0 73
455 0 0 1000000000 0 0 40
456 0 0 1000000000 0 0 100
457 0 0 1000000000 0 46 0
458 0 0 1000000000 0 0 92
459 0 0 1000000000 0 0 96
460 0 0 1000000000 0 0 36
461 0 0 1000000000 0 59 0
462 0 0 1000000000 0 0 83
463 0 0 1000000000 0 0 45
464 0 0 1000000000 0 0 82
465 0 0 1000000000 0 48 0
466 0 0 1000000000 0 0 41
467 0 0 1000000000 0 0 42
468 0 0 1000000000 0 0 96
469 0 0 1000000000 0 87 0
470 0 0 1000000000 0 0 72
471 0 0 1000000000 0 0 59
472 0 0 1000000000 0 0 64
473 0 0 1000000000 0 77 0
474 0 0 1000000000 0 0 77
475 0 0 1000000000 0 0 77
476 0 0 1000000000 0 0 74
477 0 0 1000000000 0 59 0
478 0 0 1000000000 0 0 78
479 0 0 1000000000 0 0 90
480 0 0 1000000000 0 0 78
481 0 0 1000000000 0 77 0
482 0 0 1000000000 0 0 64
483 0 0 1000000000 0 0 96
484 0 0 1000000000 0 0 59
485 0 0 1000000000 0 44 0
486 0 0 1000000000 0 0 55
487 0 0 1000000000 0 0 71
488 0 0 1000000000 0 0 77
489 0 0 1000000000 0 51 0
490 0 0 1000000000 0 0 55
491 0 0 1000000000 0 0 10
492 0 0 1000000000 0 0 100
493 0 0 1000000000 0 64 0
494 0 0 1000000000 0 0 72
495 0 0 1000000000 0 0 85
496 0 0 1000000000 0 0 89
497 0 0 1000000000 0 59 0
498 0 0 1000000000 0 0 68
499 0 0 1000000000 0 0 77
500 0 0 1000000000 0 0 53
501 0 0 1000000000 0 70 0
502 0 0 1000000000 0 0 61
503 0 0 1000000000 0 0 62
504 0 0 1000000000 0 0 86
505 0 0 1000000000 0 83 0
506 0 0 1000000000 0 0 69
507 0 0 1000000000 0 0 91
508 0 0 1000000000 0 0 36
509 0 0 1000000000 0 56 0
510 0 0 1000000000 0 0 76
511 0 0 1000000000 0 0 65
512 0 0 1000000000 0 0 56
513 0 0 1000000000 0 82 0
514 0 0 1000000000 0 0 3
515 0 0 1000000000 0 0 51
516 0 0 1000000000 0 0 89
517 0 0 1000000000 0 77 0
518 0 0 1000000000 0 0 7
519 0 0 1000000000 0 0 70
520 0 0 1000000000 0 0 40
521 0 0 1000000000 0 97 0
522 0 0 1000000000 0 0 63
523 0 0 1000000000 0 0 56
524 0 0 1000000000 0 0 74
525 0 0 1000000000 0 72 0
526 0 0 1000000000 0 0 22
527 0 0 1000000000 0 0 98
528 0 0 1000000000 0 0 100
529 0 0 1000000000 0 73 0
530 0 0 1000000000 0 0 69
531 0 0 1000000000 0 0 52
532 0 0 1000000000 0 0 68
533 0 0 1000000000 0 68 0
534 0 0 1000000000 0 0 2
535 0 0 1000000000 0 0 82
536 0 0 1000000000 0 0 98
